feasible solution found by trivial heuristic after 3.2 seconds, objective value -1.220266e+08
presolving:
(round 1, fast)       287349 del vars, 287597 del conss, 0 add conss, 0 chg bounds, 0 chg sides, 0 chg coeffs, 0 upgd conss, 0 impls, 1426 clqs
   (12.4s) running MILP presolver
   (12.5s) MILP presolver (2 rounds): 0 aggregations, 0 fixings, 0 bound changes
(round 2, medium)     287349 del vars, 295432 del conss, 2918 add conss, 0 chg bounds, 0 chg sides, 0 chg coeffs, 0 upgd conss, 0 impls, 1426 clqs
(round 3, exhaustive) 287349 del vars, 295432 del conss, 2918 add conss, 0 chg bounds, 0 chg sides, 0 chg coeffs, 1426 upgd conss, 0 impls, 1426 clqs
   (12.6s) probing: 51/1616 (3.2%) - 0 fixings, 0 aggregations, 0 implications, 0 bound changes
   (12.6s) probing aborted: 50/50 successive totally useless probings
   (12.7s) symmetry computation started: requiring (bin +, int -, cont +), (fixed: bin -, int +, cont -)
   (12.7s) no symmetry present
presolving (4 rounds: 4 fast, 3 medium, 2 exhaustive):
 287349 deleted vars, 295432 deleted constraints, 2918 added constraints, 0 tightened bounds, 0 added holes, 0 changed sides, 0 changed coefficients
 0 implications, 1426 cliques
presolved problem has 1616 variables (1616 bin, 0 int, 0 impl, 0 cont) and 2918 constraints
   1426 constraints of type <setppc>
   1492 constraints of type <linear>
Presolving Time: 10.49

 time | node  | left  |LP iter|LP it/n|mem/heur|mdpt |vars |cons |rows |cuts |sepa|confs|strbr|  dualbound   | primalbound  |  gap   | compl. 
t12.9s|     1 |     0 |     0 |     - | trivial|   0 |1616 |2918 |   0 |   0 |  0 |   0 |   0 |-1.199432e+08 |-1.220266e+08 |   1.74%| unknown
p13.2s|     1 |     0 |     0 |     - |  clique|   0 |1616 |2918 |2918 |   0 |  0 |   0 |   0 |-1.199432e+08 |-1.216277e+08 |   1.40%| unknown
 14.2s|     1 |     0 |   133 |     - |   883M |   0 |1616 |2918 |2918 |   0 |  0 |   0 |   0 |-1.209849e+08 |-1.216277e+08 |   0.53%| unknown
 14.6s|     1 |     0 |   154 |     - |   885M |   0 |1616 |2918 |2920 |   2 |  1 |   0 |   0 |-1.210002e+08 |-1.216277e+08 |   0.52%| unknown
 15.0s|     1 |     0 |   187 |     - |   885M |   0 |1616 |2918 |2922 |   4 |  2 |   0 |   0 |-1.210492e+08 |-1.216277e+08 |   0.48%| unknown
 15.4s|     1 |     0 |   238 |     - |   886M |   0 |1616 |2918 |2937 |  19 |  3 |   0 |   0 |-1.211116e+08 |-1.216277e+08 |   0.43%| unknown
 16.0s|     1 |     0 |   300 |     - |   886M |   0 |1616 |2918 |2947 |  29 |  4 |   0 |   0 |-1.211571e+08 |-1.216277e+08 |   0.39%| unknown
 16.5s|     1 |     0 |   373 |     - |   886M |   0 |1616 |2918 |2958 |  40 |  5 |   0 |   0 |-1.212033e+08 |-1.216277e+08 |   0.35%| unknown
 17.1s|     1 |     0 |   426 |     - |   887M |   0 |1616 |2918 |2964 |  46 |  6 |   0 |   0 |-1.212204e+08 |-1.216277e+08 |   0.34%| unknown
 17.5s|     1 |     0 |   451 |     - |   888M |   0 |1616 |2918 |2965 |  47 |  7 |   0 |   0 |-1.212292e+08 |-1.216277e+08 |   0.33%| unknown
 18.3s|     1 |     0 |   506 |     - |   888M |   0 |1616 |2918 |2976 |  58 |  8 |   0 |   0 |-1.212528e+08 |-1.216277e+08 |   0.31%| unknown
 19.0s|     1 |     0 |   553 |     - |   888M |   0 |1616 |2918 |2984 |  66 |  9 |   0 |   0 |-1.212652e+08 |-1.216277e+08 |   0.30%| unknown
 19.4s|     1 |     0 |   622 |     - |   889M |   0 |1616 |2918 |2993 |  75 | 10 |   0 |   0 |-1.212837e+08 |-1.216277e+08 |   0.28%| unknown
 19.9s|     1 |     0 |   650 |     - |   889M |   0 |1616 |2918 |3002 |  84 | 11 |   0 |   0 |-1.212901e+08 |-1.216277e+08 |   0.28%| unknown
 20.4s|     1 |     0 |   777 |     - |   889M |   0 |1616 |2918 |3009 |  91 | 12 |   0 |   0 |-1.213197e+08 |-1.216277e+08 |   0.25%| unknown
 time | node  | left  |LP iter|LP it/n|mem/heur|mdpt |vars |cons |rows |cuts |sepa|confs|strbr|  dualbound   | primalbound  |  gap   | compl. 
 20.8s|     1 |     0 |   900 |     - |   890M |   0 |1616 |2918 |3017 |  99 | 13 |   0 |   0 |-1.213354e+08 |-1.216277e+08 |   0.24%| unknown
 21.2s|     1 |     0 |   949 |     - |   890M |   0 |1616 |2918 |3019 | 101 | 14 |   0 |   0 |-1.213427e+08 |-1.216277e+08 |   0.23%| unknown
 21.6s|     1 |     0 |  1036 |     - |   891M |   0 |1616 |2918 |3029 | 111 | 15 |   0 |   0 |-1.213530e+08 |-1.216277e+08 |   0.23%| unknown
 22.1s|     1 |     0 |  1198 |     - |   892M |   0 |1616 |2918 |3039 | 121 | 16 |   0 |   0 |-1.213730e+08 |-1.216277e+08 |   0.21%| unknown
 22.6s|     1 |     0 |  1302 |     - |   892M |   0 |1616 |2918 |3040 | 123 | 17 |   0 |   0 |-1.213822e+08 |-1.216277e+08 |   0.20%| unknown
 23.0s|     1 |     0 |  1384 |     - |   892M |   0 |1616 |2918 |3045 | 128 | 18 |   0 |   0 |-1.213887e+08 |-1.216277e+08 |   0.20%| unknown
 23.5s|     1 |     0 |  1486 |     - |   893M |   0 |1616 |2918 |3049 | 132 | 19 |   0 |   0 |-1.214007e+08 |-1.216277e+08 |   0.19%| unknown
 23.9s|     1 |     0 |  1544 |     - |   893M |   0 |1616 |2918 |3053 | 136 | 20 |   0 |   0 |-1.214061e+08 |-1.216277e+08 |   0.18%| unknown
 24.3s|     1 |     0 |  1658 |     - |   893M |   0 |1616 |2918 |3060 | 143 | 21 |   0 |   0 |-1.214197e+08 |-1.216277e+08 |   0.17%| unknown
 24.7s|     1 |     0 |  1750 |     - |   893M |   0 |1616 |2918 |3066 | 149 | 22 |   0 |   0 |-1.214256e+08 |-1.216277e+08 |   0.17%| unknown
 25.2s|     1 |     0 |  1839 |     - |   893M |   0 |1616 |2918 |3068 | 158 | 23 |   0 |   0 |-1.214321e+08 |-1.216277e+08 |   0.16%| unknown
 25.8s|     1 |     0 |  1939 |     - |   893M |   0 |1616 |2918 |3072 | 162 | 24 |   0 |   0 |-1.214374e+08 |-1.216277e+08 |   0.16%| unknown
 26.4s|     1 |     0 |  1999 |     - |   894M |   0 |1616 |2918 |3077 | 167 | 25 |   0 |   0 |-1.214396e+08 |-1.216277e+08 |   0.15%| unknown
 27.0s|     1 |     0 |  2070 |     - |   894M |   0 |1616 |2918 |3082 | 172 | 26 |   0 |   0 |-1.214431e+08 |-1.216277e+08 |   0.15%| unknown
 27.6s|     1 |     0 |  2120 |     - |   894M |   0 |1616 |2918 |3085 | 175 | 27 |   0 |   0 |-1.214455e+08 |-1.216277e+08 |   0.15%| unknown
 time | node  | left  |LP iter|LP it/n|mem/heur|mdpt |vars |cons |rows |cuts |sepa|confs|strbr|  dualbound   | primalbound  |  gap   | compl. 
 28.2s|     1 |     0 |  2187 |     - |   894M |   0 |1616 |2918 |3090 | 180 | 28 |   0 |   0 |-1.214478e+08 |-1.216277e+08 |   0.15%| unknown
 28.8s|     1 |     0 |  2227 |     - |   894M |   0 |1616 |2918 |3074 | 184 | 29 |   0 |   0 |-1.214506e+08 |-1.216277e+08 |   0.15%| unknown
 29.4s|     1 |     0 |  2259 |     - |   894M |   0 |1616 |2918 |3077 | 187 | 30 |   0 |   0 |-1.214520e+08 |-1.216277e+08 |   0.14%| unknown
 29.8s|     1 |     0 |  2281 |     - |   894M |   0 |1616 |2918 |3079 | 189 | 31 |   0 |   0 |-1.214525e+08 |-1.216277e+08 |   0.14%| unknown
 30.3s|     1 |     0 |  2362 |     - |   894M |   0 |1616 |2918 |3084 | 194 | 32 |   0 |   0 |-1.214559e+08 |-1.216277e+08 |   0.14%| unknown
 30.7s|     1 |     0 |  2396 |     - |   895M |   0 |1616 |2918 |3090 | 200 | 33 |   0 |   0 |-1.214570e+08 |-1.216277e+08 |   0.14%| unknown
 31.2s|     1 |     0 |  2425 |     - |   895M |   0 |1616 |2918 |3094 | 204 | 34 |   0 |   0 |-1.214583e+08 |-1.216277e+08 |   0.14%| unknown
 31.7s|     1 |     0 |  2450 |     - |   896M |   0 |1616 |2918 |3080 | 207 | 35 |   0 |   0 |-1.214588e+08 |-1.216277e+08 |   0.14%| unknown
 32.1s|     1 |     0 |  2465 |     - |   896M |   0 |1616 |2918 |3082 | 209 | 36 |   0 |   0 |-1.214594e+08 |-1.216277e+08 |   0.14%| unknown
 32.8s|     1 |     0 |  2487 |     - |   896M |   0 |1616 |2918 |3085 | 212 | 37 |   0 |   0 |-1.214597e+08 |-1.216277e+08 |   0.14%| unknown
 33.4s|     1 |     0 |  2521 |     - |   896M |   0 |1616 |2918 |3088 | 215 | 38 |   0 |   0 |-1.214608e+08 |-1.216277e+08 |   0.14%| unknown
 33.9s|     1 |     0 |  2557 |     - |   896M |   0 |1616 |2918 |3092 | 219 | 39 |   0 |   0 |-1.214616e+08 |-1.216277e+08 |   0.14%| unknown
 34.4s|     1 |     0 |  2574 |     - |   896M |   0 |1616 |2918 |3097 | 224 | 40 |   0 |   0 |-1.214619e+08 |-1.216277e+08 |   0.14%| unknown
 35.0s|     1 |     0 |  2595 |     - |   896M |   0 |1616 |2918 |3084 | 225 | 41 |   0 |   0 |-1.214620e+08 |-1.216277e+08 |   0.14%| unknown
 35.5s|     1 |     0 |  2619 |     - |   896M |   0 |1616 |2918 |3086 | 227 | 42 |   0 |   0 |-1.214623e+08 |-1.216277e+08 |   0.14%| unknown
 time | node  | left  |LP iter|LP it/n|mem/heur|mdpt |vars |cons |rows |cuts |sepa|confs|strbr|  dualbound   | primalbound  |  gap   | compl. 
 35.8s|     1 |     0 |  2638 |     - |   896M |   0 |1616 |2918 |3091 | 232 | 43 |   0 |   0 |-1.214625e+08 |-1.216277e+08 |   0.14%| unknown
 36.4s|     1 |     0 |  2663 |     - |   896M |   0 |1616 |2918 |3095 | 236 | 44 |   0 |   0 |-1.214629e+08 |-1.216277e+08 |   0.14%| unknown
 36.8s|     1 |     0 |  2683 |     - |   897M |   0 |1616 |2918 |3099 | 240 | 45 |   0 |   0 |-1.214634e+08 |-1.216277e+08 |   0.14%| unknown
 37.2s|     1 |     0 |  2703 |     - |   897M |   0 |1616 |2918 |3102 | 243 | 46 |   0 |   0 |-1.214638e+08 |-1.216277e+08 |   0.14%| unknown
 37.6s|     1 |     0 |  2714 |     - |   897M |   0 |1616 |2918 |3081 | 245 | 47 |   0 |   0 |-1.214640e+08 |-1.216277e+08 |   0.13%| unknown
 38.0s|     1 |     0 |  2729 |     - |   897M |   0 |1616 |2918 |3084 | 248 | 48 |   0 |   0 |-1.214643e+08 |-1.216277e+08 |   0.13%| unknown
 38.6s|     1 |     0 |  2738 |     - |   897M |   0 |1616 |2918 |3085 | 249 | 49 |   0 |   0 |-1.214643e+08 |-1.216277e+08 |   0.13%| unknown
 38.9s|     1 |     0 |  2751 |     - |   897M |   0 |1616 |2918 |3090 | 254 | 50 |   0 |   0 |-1.214644e+08 |-1.216277e+08 |   0.13%| unknown
 39.5s|     1 |     0 |  2763 |     - |   897M |   0 |1616 |2918 |3092 | 256 | 51 |   0 |   0 |-1.214645e+08 |-1.216277e+08 |   0.13%| unknown
 39.9s|     1 |     0 |  2765 |     - |   897M |   0 |1616 |2918 |3093 | 257 | 52 |   0 |   0 |-1.214645e+08 |-1.216277e+08 |   0.13%| unknown
 40.5s|     1 |     0 |  2768 |     - |   897M |   0 |1616 |2918 |3072 | 258 | 53 |   0 |   0 |-1.214645e+08 |-1.216277e+08 |   0.13%| unknown
d41.2s|     1 |     0 |  3093 |     - |farkasdi|   0 |1616 |2918 |3072 |   0 | 55 |   0 |   0 |-1.214645e+08 |-1.216039e+08 |   0.11%| unknown
L43.1s|     1 |     0 |  3093 |     - |    rens|   0 |1616 |2918 |3072 | 258 | 55 |   0 |   0 |-1.214645e+08 |-1.215421e+08 |   0.06%| unknown
 43.3s|     1 |     0 |  3093 |     - |   898M |   0 |1616 |2918 |3072 | 258 | 55 |   0 |   0 |-1.214645e+08 |-1.215421e+08 |   0.06%| unknown
 43.8s|     1 |     0 |  3095 |     - |   898M |   0 |1616 |2918 |3073 | 259 | 56 |   0 |   0 |-1.214645e+08 |-1.215421e+08 |   0.06%| unknown
 time | node  | left  |LP iter|LP it/n|mem/heur|mdpt |vars |cons |rows |cuts |sepa|confs|strbr|  dualbound   | primalbound  |  gap   | compl. 
 46.0s|     1 |     2 |  3095 |     - |   898M |   0 |1616 |2918 |3073 | 259 | 57 |   0 |  21 |-1.214724e+08 |-1.215421e+08 |   0.06%| unknown

SCIP Status        : problem is solved [optimal solution found]
Solving Time (sec) : 86.49
Solving Nodes      : 49
Primal Bound       : -1.21542100955870e+08 (74 solutions)
Dual Bound         : -1.21542100955870e+08
Gap                : 0.00 %
Solve Status: optimal
Solve Time: 103.28 seconds
